Minimize
[ err1 ^ 2 + err2 ^ 2 + err3 ^ 2 + err4 ^ 2 + err5 ^ 2 + err6 ^ 2 + err7 ^ 2 + err8 ^ 2 + err9 ^ 2 + err10 ^ 2 + err11 ^ 2 + err12 ^ 2 + err13 ^ 2 + err14 ^ 2 + err15 ^ 2 + err16 ^ 2 + err17 ^ 2 + err18 ^ 2 + err19 ^ 2 + err20 ^ 2 + err21 ^ 2 + err22 ^ 2 + err23 ^ 2 + err24 ^ 2 + err25 ^ 2 + err26 ^ 2 + err27 ^ 2 + err28 ^ 2 + err29 ^ 2 + err30 ^ 2 + err31 ^ 2 + err32 ^ 2 + err33 ^ 2 + err34 ^ 2 + err35 ^ 2 + err36 ^ 2 + err37 ^ 2 + err38 ^ 2 + err39 ^ 2 + err40 ^ 2 + err41 ^ 2 + err42 ^ 2 + err43 ^ 2 + err44 ^ 2 + err45 ^ 2 + err46 ^ 2 + err47 ^ 2 + err48 ^ 2 + err49 ^ 2 + err50 ^ 2 + err51 ^ 2 + err52 ^ 2 + err53 ^ 2 + err54 ^ 2 + err55 ^ 2 + err56 ^ 2 + err57 ^ 2 + err58 ^ 2 + err59 ^ 2 + err60 ^ 2 + err61 ^ 2 + err62 ^ 2 + err63 ^ 2 + err64 ^ 2 + err65 ^ 2 + err66 ^ 2 + err67 ^ 2 + err68 ^ 2 + err69 ^ 2 + err70 ^ 2 + err71 ^ 2 + err72 ^ 2 + err73 ^ 2 + err74 ^ 2 + err75 ^ 2 + err76 ^ 2 + err77 ^ 2 + err78 ^ 2 + err79 ^ 2 + err80 ^ 2 + err81 ^ 2 + err82 ^ 2 + err83 ^ 2 + err84 ^ 2 + err85 ^ 2 + err86 ^ 2 + err87 ^ 2 + err88 ^ 2 + err89 ^ 2 + err90 ^ 2 + err91 ^ 2 + err92 ^ 2 + err93 ^ 2 + err94 ^ 2 + err95 ^ 2 + err96 ^ 2 + err97 ^ 2 + err98 ^ 2 + err99 ^ 2 + err100 ^ 2 + err101 ^ 2 + err102 ^ 2 + err103 ^ 2 + err104 ^ 2 + err105 ^ 2 + err106 ^ 2 + err107 ^ 2 + err108 ^ 2 + err109 ^ 2 + err110 ^ 2 + err111 ^ 2 ]

Subject To
1.0 layer_2 + 1.0 layer_1 + layer_c + 1.0 particle_2 + 1.0 particle_1 + particle_c + 1.0 particle_layer  + err1 = 301.033
0.64 layer_2 + 0.8 layer_1 + layer_c + 1.0 particle_2 + 1.0 particle_1 + particle_c + 0.8 particle_layer  + err2 = 245.033
0.36 layer_2 + 0.6 layer_1 + layer_c + 1.0 particle_2 + 1.0 particle_1 + particle_c + 0.6 particle_layer  + err3 = 188.5
0.16 layer_2 + 0.4 layer_1 + layer_c + 1.0 particle_2 + 1.0 particle_1 + particle_c + 0.4 particle_layer  + err4 = 133.233
0.04 layer_2 + 0.2 layer_1 + layer_c + 1.0 particle_2 + 1.0 particle_1 + particle_c + 0.2 particle_layer  + err5 = 79.0
1.0 layer_2 + 1.0 layer_1 + layer_c + 0.950625 particle_2 + 0.975 particle_1 + particle_c + 0.975 particle_layer  + err6 = 293.533
0.64 layer_2 + 0.8 layer_1 + layer_c + 0.950625 particle_2 + 0.975 particle_1 + particle_c + 0.78 particle_layer  + err7 = 239.733
0.36 layer_2 + 0.6 layer_1 + layer_c + 0.950625 particle_2 + 0.975 particle_1 + particle_c + 0.585 particle_layer  + err8 = 186.433
0.16 layer_2 + 0.4 layer_1 + layer_c + 0.950625 particle_2 + 0.975 particle_1 + particle_c + 0.39 particle_layer  + err9 = 131.0
1.0 layer_2 + 1.0 layer_1 + layer_c + 0.9025 particle_2 + 0.95 particle_1 + particle_c + 0.95 particle_layer  + err10 = 290.467
0.64 layer_2 + 0.8 layer_1 + layer_c + 0.9025 particle_2 + 0.95 particle_1 + particle_c + 0.76 particle_layer  + err11 = 235.267
0.36 layer_2 + 0.6 layer_1 + layer_c + 0.9025 particle_2 + 0.95 particle_1 + particle_c + 0.57 particle_layer  + err12 = 180.833
0.16 layer_2 + 0.4 layer_1 + layer_c + 0.9025 particle_2 + 0.95 particle_1 + particle_c + 0.38 particle_layer  + err13 = 129.467
1.0 layer_2 + 1.0 layer_1 + layer_c + 0.855625 particle_2 + 0.925 particle_1 + particle_c + 0.925 particle_layer  + err14 = 282.6
0.64 layer_2 + 0.8 layer_1 + layer_c + 0.855625 particle_2 + 0.925 particle_1 + particle_c + 0.74 particle_layer  + err15 = 230.8
0.36 layer_2 + 0.6 layer_1 + layer_c + 0.855625 particle_2 + 0.925 particle_1 + particle_c + 0.555 particle_layer  + err16 = 178.0
0.16 layer_2 + 0.4 layer_1 + layer_c + 0.855625 particle_2 + 0.925 particle_1 + particle_c + 0.37 particle_layer  + err17 = 125.367
1.0 layer_2 + 1.0 layer_1 + layer_c + 0.81 particle_2 + 0.9 particle_1 + particle_c + 0.9 particle_layer  + err18 = 274.767
0.64 layer_2 + 0.8 layer_1 + layer_c + 0.81 particle_2 + 0.9 particle_1 + particle_c + 0.72 particle_layer  + err19 = 224.8
0.36 layer_2 + 0.6 layer_1 + layer_c + 0.81 particle_2 + 0.9 particle_1 + particle_c + 0.54 particle_layer  + err20 = 172.833
0.16 layer_2 + 0.4 layer_1 + layer_c + 0.81 particle_2 + 0.9 particle_1 + particle_c + 0.36 particle_layer  + err21 = 123.567
1.0 layer_2 + 1.0 layer_1 + layer_c + 0.765625 particle_2 + 0.875 particle_1 + particle_c + 0.875 particle_layer  + err22 = 267.533
0.64 layer_2 + 0.8 layer_1 + layer_c + 0.765625 particle_2 + 0.875 particle_1 + particle_c + 0.7 particle_layer  + err23 = 218.033
0.36 layer_2 + 0.6 layer_1 + layer_c + 0.765625 particle_2 + 0.875 particle_1 + particle_c + 0.525 particle_layer  + err24 = 169.1
0.16 layer_2 + 0.4 layer_1 + layer_c + 0.765625 particle_2 + 0.875 particle_1 + particle_c + 0.35 particle_layer  + err25 = 120.0
1.0 layer_2 + 1.0 layer_1 + layer_c + 0.7225 particle_2 + 0.85 particle_1 + particle_c + 0.85 particle_layer  + err26 = 260.633
0.64 layer_2 + 0.8 layer_1 + layer_c + 0.7225 particle_2 + 0.85 particle_1 + particle_c + 0.68 particle_layer  + err27 = 212.367
0.36 layer_2 + 0.6 layer_1 + layer_c + 0.7225 particle_2 + 0.85 particle_1 + particle_c + 0.51 particle_layer  + err28 = 165.3
0.16 layer_2 + 0.4 layer_1 + layer_c + 0.7225 particle_2 + 0.85 particle_1 + particle_c + 0.34 particle_layer  + err29 = 117.233
1.0 layer_2 + 1.0 layer_1 + layer_c + 0.680625 particle_2 + 0.825 particle_1 + particle_c + 0.825 particle_layer  + err30 = 253.4
0.64 layer_2 + 0.8 layer_1 + layer_c + 0.680625 particle_2 + 0.825 particle_1 + particle_c + 0.66 particle_layer  + err31 = 206.167
0.36 layer_2 + 0.6 layer_1 + layer_c + 0.680625 particle_2 + 0.825 particle_1 + particle_c + 0.495 particle_layer  + err32 = 161.167
0.16 layer_2 + 0.4 layer_1 + layer_c + 0.680625 particle_2 + 0.825 particle_1 + particle_c + 0.33 particle_layer  + err33 = 114.333
1.0 layer_2 + 1.0 layer_1 + layer_c + 0.64 particle_2 + 0.8 particle_1 + particle_c + 0.8 particle_layer  + err34 = 247.8
0.64 layer_2 + 0.8 layer_1 + layer_c + 0.64 particle_2 + 0.8 particle_1 + particle_c + 0.64 particle_layer  + err35 = 202.433
0.36 layer_2 + 0.6 layer_1 + layer_c + 0.64 particle_2 + 0.8 particle_1 + particle_c + 0.48 particle_layer  + err36 = 155.933
0.16 layer_2 + 0.4 layer_1 + layer_c + 0.64 particle_2 + 0.8 particle_1 + particle_c + 0.32 particle_layer  + err37 = 111.333
1.0 layer_2 + 1.0 layer_1 + layer_c + 0.600625 particle_2 + 0.775 particle_1 + particle_c + 0.775 particle_layer  + err38 = 239.467
0.64 layer_2 + 0.8 layer_1 + layer_c + 0.600625 particle_2 + 0.775 particle_1 + particle_c + 0.62 particle_layer  + err39 = 195.8
0.36 layer_2 + 0.6 layer_1 + layer_c + 0.600625 particle_2 + 0.775 particle_1 + particle_c + 0.465 particle_layer  + err40 = 151.233
0.16 layer_2 + 0.4 layer_1 + layer_c + 0.600625 particle_2 + 0.775 particle_1 + particle_c + 0.31 particle_layer  + err41 = 108.6
1.0 layer_2 + 1.0 layer_1 + layer_c + 0.5625 particle_2 + 0.75 particle_1 + particle_c + 0.75 particle_layer  + err42 = 233.1
0.64 layer_2 + 0.8 layer_1 + layer_c + 0.5625 particle_2 + 0.75 particle_1 + particle_c + 0.6 particle_layer  + err43 = 187.533
0.36 layer_2 + 0.6 layer_1 + layer_c + 0.5625 particle_2 + 0.75 particle_1 + particle_c + 0.45 particle_layer  + err44 = 148.733
1.0 layer_2 + 1.0 layer_1 + layer_c + 0.525625 particle_2 + 0.725 particle_1 + particle_c + 0.725 particle_layer  + err45 = 227.1
0.64 layer_2 + 0.8 layer_1 + layer_c + 0.525625 particle_2 + 0.725 particle_1 + particle_c + 0.58 particle_layer  + err46 = 184.8
0.36 layer_2 + 0.6 layer_1 + layer_c + 0.525625 particle_2 + 0.725 particle_1 + particle_c + 0.435 particle_layer  + err47 = 144.267
1.0 layer_2 + 1.0 layer_1 + layer_c + 0.49 particle_2 + 0.7 particle_1 + particle_c + 0.7 particle_layer  + err48 = 216.133
0.64 layer_2 + 0.8 layer_1 + layer_c + 0.49 particle_2 + 0.7 particle_1 + particle_c + 0.56 particle_layer  + err49 = 177.5
0.36 layer_2 + 0.6 layer_1 + layer_c + 0.49 particle_2 + 0.7 particle_1 + particle_c + 0.42 particle_layer  + err50 = 139.667
1.0 layer_2 + 1.0 layer_1 + layer_c + 0.455625 particle_2 + 0.675 particle_1 + particle_c + 0.675 particle_layer  + err51 = 210.033
0.64 layer_2 + 0.8 layer_1 + layer_c + 0.455625 particle_2 + 0.675 particle_1 + particle_c + 0.54 particle_layer  + err52 = 173.6
0.36 layer_2 + 0.6 layer_1 + layer_c + 0.455625 particle_2 + 0.675 particle_1 + particle_c + 0.405 particle_layer  + err53 = 133.867
1.0 layer_2 + 1.0 layer_1 + layer_c + 0.4225 particle_2 + 0.65 particle_1 + particle_c + 0.65 particle_layer  + err54 = 203.167
0.64 layer_2 + 0.8 layer_1 + layer_c + 0.4225 particle_2 + 0.65 particle_1 + particle_c + 0.52 particle_layer  + err55 = 167.367
0.36 layer_2 + 0.6 layer_1 + layer_c + 0.4225 particle_2 + 0.65 particle_1 + particle_c + 0.39 particle_layer  + err56 = 130.567
1.0 layer_2 + 1.0 layer_1 + layer_c + 0.390625 particle_2 + 0.625 particle_1 + particle_c + 0.625 particle_layer  + err57 = 199.4
0.64 layer_2 + 0.8 layer_1 + layer_c + 0.390625 particle_2 + 0.625 particle_1 + particle_c + 0.5 particle_layer  + err58 = 161.167
0.36 layer_2 + 0.6 layer_1 + layer_c + 0.390625 particle_2 + 0.625 particle_1 + particle_c + 0.375 particle_layer  + err59 = 127.433
1.0 layer_2 + 1.0 layer_1 + layer_c + 0.36 particle_2 + 0.6 particle_1 + particle_c + 0.6 particle_layer  + err60 = 191.0
0.64 layer_2 + 0.8 layer_1 + layer_c + 0.36 particle_2 + 0.6 particle_1 + particle_c + 0.48 particle_layer  + err61 = 158.233
0.36 layer_2 + 0.6 layer_1 + layer_c + 0.36 particle_2 + 0.6 particle_1 + particle_c + 0.36 particle_layer  + err62 = 122.767
1.0 layer_2 + 1.0 layer_1 + layer_c + 0.330625 particle_2 + 0.575 particle_1 + particle_c + 0.575 particle_layer  + err63 = 183.333
0.64 layer_2 + 0.8 layer_1 + layer_c + 0.330625 particle_2 + 0.575 particle_1 + particle_c + 0.46 particle_layer  + err64 = 150.2
0.36 layer_2 + 0.6 layer_1 + layer_c + 0.330625 particle_2 + 0.575 particle_1 + particle_c + 0.345 particle_layer  + err65 = 120.233
1.0 layer_2 + 1.0 layer_1 + layer_c + 0.3025 particle_2 + 0.55 particle_1 + particle_c + 0.55 particle_layer  + err66 = 178.733
0.64 layer_2 + 0.8 layer_1 + layer_c + 0.3025 particle_2 + 0.55 particle_1 + particle_c + 0.44 particle_layer  + err67 = 146.4
0.36 layer_2 + 0.6 layer_1 + layer_c + 0.3025 particle_2 + 0.55 particle_1 + particle_c + 0.33 particle_layer  + err68 = 114.667
1.0 layer_2 + 1.0 layer_1 + layer_c + 0.275625 particle_2 + 0.525 particle_1 + particle_c + 0.525 particle_layer  + err69 = 169.2
0.64 layer_2 + 0.8 layer_1 + layer_c + 0.275625 particle_2 + 0.525 particle_1 + particle_c + 0.42 particle_layer  + err70 = 139.133
0.36 layer_2 + 0.6 layer_1 + layer_c + 0.275625 particle_2 + 0.525 particle_1 + particle_c + 0.315 particle_layer  + err71 = 109.567
1.0 layer_2 + 1.0 layer_1 + layer_c + 0.25 particle_2 + 0.5 particle_1 + particle_c + 0.5 particle_layer  + err72 = 162.533
0.64 layer_2 + 0.8 layer_1 + layer_c + 0.25 particle_2 + 0.5 particle_1 + particle_c + 0.4 particle_layer  + err73 = 134.2
1.0 layer_2 + 1.0 layer_1 + layer_c + 0.225625 particle_2 + 0.475 particle_1 + particle_c + 0.475 particle_layer  + err74 = 155.433
0.64 layer_2 + 0.8 layer_1 + layer_c + 0.225625 particle_2 + 0.475 particle_1 + particle_c + 0.38 particle_layer  + err75 = 128.9
1.0 layer_2 + 1.0 layer_1 + layer_c + 0.2025 particle_2 + 0.45 particle_1 + particle_c + 0.45 particle_layer  + err76 = 147.667
0.64 layer_2 + 0.8 layer_1 + layer_c + 0.2025 particle_2 + 0.45 particle_1 + particle_c + 0.36 particle_layer  + err77 = 122.3
1.0 layer_2 + 1.0 layer_1 + layer_c + 0.180625 particle_2 + 0.425 particle_1 + particle_c + 0.425 particle_layer  + err78 = 142.133
0.64 layer_2 + 0.8 layer_1 + layer_c + 0.180625 particle_2 + 0.425 particle_1 + particle_c + 0.34 particle_layer  + err79 = 116.867
1.0 layer_2 + 1.0 layer_1 + layer_c + 0.16 particle_2 + 0.4 particle_1 + particle_c + 0.4 particle_layer  + err80 = 134.1
0.64 layer_2 + 0.8 layer_1 + layer_c + 0.16 particle_2 + 0.4 particle_1 + particle_c + 0.32 particle_layer  + err81 = 111.433
1.0 layer_2 + 1.0 layer_1 + layer_c + 0.140625 particle_2 + 0.375 particle_1 + particle_c + 0.375 particle_layer  + err82 = 126.767
0.64 layer_2 + 0.8 layer_1 + layer_c + 0.140625 particle_2 + 0.375 particle_1 + particle_c + 0.3 particle_layer  + err83 = 105.967
1.0 layer_2 + 1.0 layer_1 + layer_c + 0.1225 particle_2 + 0.35 particle_1 + particle_c + 0.35 particle_layer  + err84 = 119.867
0.64 layer_2 + 0.8 layer_1 + layer_c + 0.1225 particle_2 + 0.35 particle_1 + particle_c + 0.28 particle_layer  + err85 = 101.467
1.0 layer_2 + 1.0 layer_1 + layer_c + 0.105625 particle_2 + 0.325 particle_1 + particle_c + 0.325 particle_layer  + err86 = 113.933
0.64 layer_2 + 0.8 layer_1 + layer_c + 0.105625 particle_2 + 0.325 particle_1 + particle_c + 0.26 particle_layer  + err87 = 95.3
1.0 layer_2 + 1.0 layer_1 + layer_c + 0.09 particle_2 + 0.3 particle_1 + particle_c + 0.3 particle_layer  + err88 = 106.967
0.64 layer_2 + 0.8 layer_1 + layer_c + 0.09 particle_2 + 0.3 particle_1 + particle_c + 0.24 particle_layer  + err89 = 88.7
1.0 layer_2 + 1.0 layer_1 + layer_c + 0.075625 particle_2 + 0.275 particle_1 + particle_c + 0.275 particle_layer  + err90 = 98.8333
0.64 layer_2 + 0.8 layer_1 + layer_c + 0.075625 particle_2 + 0.275 particle_1 + particle_c + 0.22 particle_layer  + err91 = 83.5667
1.0 layer_2 + 1.0 layer_1 + layer_c + 0.0625 particle_2 + 0.25 particle_1 + particle_c + 0.25 particle_layer  + err92 = 91.2
0.64 layer_2 + 0.8 layer_1 + layer_c + 0.0625 particle_2 + 0.25 particle_1 + particle_c + 0.2 particle_layer  + err93 = 77.5333
1.0 layer_2 + 1.0 layer_1 + layer_c + 0.050625 particle_2 + 0.225 particle_1 + particle_c + 0.225 particle_layer  + err94 = 84.5333
0.64 layer_2 + 0.8 layer_1 + layer_c + 0.050625 particle_2 + 0.225 particle_1 + particle_c + 0.18 particle_layer  + err95 = 72.4
1.0 layer_2 + 1.0 layer_1 + layer_c + 0.04 particle_2 + 0.2 particle_1 + particle_c + 0.2 particle_layer  + err96 = 78.0333
0.64 layer_2 + 0.8 layer_1 + layer_c + 0.04 particle_2 + 0.2 particle_1 + particle_c + 0.16 particle_layer  + err97 = 66.3
1.0 layer_2 + 1.0 layer_1 + layer_c + 0.030625 particle_2 + 0.175 particle_1 + particle_c + 0.175 particle_layer  + err98 = 70.2667
0.64 layer_2 + 0.8 layer_1 + layer_c + 0.030625 particle_2 + 0.175 particle_1 + particle_c + 0.14 particle_layer  + err99 = 60.4
1.0 layer_2 + 1.0 layer_1 + layer_c + 0.0225 particle_2 + 0.15 particle_1 + particle_c + 0.15 particle_layer  + err100 = 63.6
0.64 layer_2 + 0.8 layer_1 + layer_c + 0.0225 particle_2 + 0.15 particle_1 + particle_c + 0.12 particle_layer  + err101 = 54.8333
1.0 layer_2 + 1.0 layer_1 + layer_c + 0.015625 particle_2 + 0.125 particle_1 + particle_c + 0.125 particle_layer  + err102 = 56.9667
0.64 layer_2 + 0.8 layer_1 + layer_c + 0.015625 particle_2 + 0.125 particle_1 + particle_c + 0.1 particle_layer  + err103 = 50.3667
1.0 layer_2 + 1.0 layer_1 + layer_c + 0.01 particle_2 + 0.1 particle_1 + particle_c + 0.1 particle_layer  + err104 = 50.5333
0.64 layer_2 + 0.8 layer_1 + layer_c + 0.01 particle_2 + 0.1 particle_1 + particle_c + 0.08 particle_layer  + err105 = 45.3
1.0 layer_2 + 1.0 layer_1 + layer_c + 0.005625 particle_2 + 0.075 particle_1 + particle_c + 0.075 particle_layer  + err106 = 42.6333
0.64 layer_2 + 0.8 layer_1 + layer_c + 0.005625 particle_2 + 0.075 particle_1 + particle_c + 0.06 particle_layer  + err107 = 38.2667
1.0 layer_2 + 1.0 layer_1 + layer_c + 0.0025 particle_2 + 0.05 particle_1 + particle_c + 0.05 particle_layer  + err108 = 35.2333
0.64 layer_2 + 0.8 layer_1 + layer_c + 0.0025 particle_2 + 0.05 particle_1 + particle_c + 0.04 particle_layer  + err109 = 32.3333
1.0 layer_2 + 1.0 layer_1 + layer_c + 0.000625 particle_2 + 0.025 particle_1 + particle_c + 0.025 particle_layer  + err110 = 27.8667
0.64 layer_2 + 0.8 layer_1 + layer_c + 0.000625 particle_2 + 0.025 particle_1 + particle_c + 0.02 particle_layer  + err111 = 26.9
[ particle_layer ^ 2 - 4 particle_2 * layer_2 ] <= 0
